CMD:
./solvers/bin/cadical --plain --no-reduce -t 1600 ./data/cnfs//6s421rb083/6s421rb083.87.cnf

c --- [ banner ] -------------------------------------------------------------
c 
c CaDiCaL SAT Solver
c Copyright (c) 2016-2024
c A. Biere, M. Fleury, N. Froleyks, K. Fazekas, F. Pollitt, T. Faller
c JKU Linz, University of Freiburg, TU Wien
c 
c Version 2.1.3 5296d3d2a9bf48c154ab2acb5e44625776d821bf
c g++ (Gentoo 12.3.1_p20230526 p2) 12.3.1 20230526 -Wall -Wextra -O3 -DNDEBUG
c Sat Aug 9 07:26:21 PDT 2025 Linux cedar2.int.cedar.computecanada.ca 5.14.0-362.24.2.el9_3.x86_64 x86_64
c 
c --- [ limit ] --------------------------------------------------------------
c 
c setting time limit to 1600 seconds real time (due to '-t 1600')
c 
c --- [ parsing input ] ------------------------------------------------------
c 
c reading DIMACS file from './data/cnfs//6s421rb083/6s421rb083.87.cnf'
c opening file to read './data/cnfs//6s421rb083/6s421rb083.87.cnf'
c found 'p cnf 529052 1543239' header
c parsed 1543239 clauses in 0.30 seconds process time
c 
c --- [ options ] ------------------------------------------------------------
c 
c   --compact=false                (different from default 'true')
c   --decompose=false              (different from default 'true')
c   --deduplicate=false            (different from default 'true')
c   --elim=false                   (different from default 'true')
c   --probe=false                  (different from default 'true')
c   --reduce=false                 (different from default 'true')
c   --subsume=false                (different from default 'true')
c   --ternary=false                (different from default 'true')
c   --transred=false               (different from default 'true')
c   --vivify=false                 (different from default 'true')
c 
c --- [ solving ] ------------------------------------------------------------
c 
c time measured in process time since initialization
c 
c  seconds   reductions  redundant   irredundant
c          MB    restarts       trail        variables
c           level   conflicts       glue           remaining
c 
c *  0.30 247  0 0   0    0    0  0% 0 1531148 519584 98%
c {  0.41 255  0 0   0    0    0  0% 0 1531148 519584 98%
c i  0.41 255 488 0   0   92   87  3% 10 1531148 519580 98%
c i  0.42 255 478 0   0   94   88  3% 10 1531148 519579 98%
c i  0.45 257 463 0   0   97   90  3% 10 1531148 519249 98%
c i  0.47 258 454 0   0   99   91  4% 10 1531148 518928 98%
c i  0.53 259 359 0   2  620  502 14% 6 1531148 518766 98%
c }  1.35 260 328 0  32 1018  866 16% 6 1531148 518766 98%
c [  1.35 260  0 0  32 1018  866  0% 0 1531148 518766 98%
c O  1.36 260 606 0  32 1019  867  3% 1 1531148 518766 98%
c ]  1.67 261 3874 0  33 3019 2597 76% 6 1531148 518766 98%
c {  1.67 261 328 0  33 3019 2597 16% 6 1531148 518766 98%
c F  1.70 261 328 0  33 3020 2598 16% 6 1531148 518766 98%
c i  6.42 261 947 0 135 5350 4449 28% 6 1531148 518765 98%
c #  7.31 261 828 0 146 6031 5041 26% 5 1531148 518765 98%
c }  7.98 261 788 0 164 7020 5835 26% 5 1531148 518765 98%
c [  7.98 261 3874 0 164 7020 5835 76% 6 1531148 518765 98%
c I  8.81 262 2835 0 166 10032 8082 56% 6 1531148 518765 98%
c i  8.82 262 2833 0 166 10036 8084 56% 6 1531148 518611 98%
c ] 10.96 262 2246 0 169 15020 12167 48% 8 1531148 518611 98%
c 
c  seconds    reductions    redundant   irredundant
c          MB     restarts         trail        variables
c            level    conflicts        glue           remaining
c 
c { 10.96 262 788 0 169 15020 12167 26% 5 1531148 518611 98%
c B 11.02 263 788 0 170 15034 12181 26% 5 1531148 518611 98%
c W 17.86 263 711 0 309 21035 17147 22% 4 1512839 518611 98%
c F 33.76 263 779 0 847 28037 23106 22% 4 1512839 518611 98%
c } 37.55 263 908 0 966 31021 25624 24% 4 1512839 518611 98%
c [ 37.55 263 2246 0 966 31021 25624 48% 8 1512839 518611 98%
c B 38.65 263 3345 0 969 36038 29432 55% 7 1512839 518611 98%
c W 42.74 265 2878 0 973 45040 36631 51% 7 1512839 518611 98%
c O 44.36 266 3862 0 975 55042 44158 53% 7 1512839 518611 98%
c ] 45.89 267 3503 0 980 63023 50173 49% 6 1512839 518611 98%
c { 45.89 267 908 0 980 63023 50173 24% 4 1512839 518611 98%
c B 51.02 267 973 0 1264 66043 52533 24% 4 1512839 518611 98%
c W 70.89 270 934 0 2437 78044 62383 23% 4 1512839 518611 98%
c # 89.25 271 845 0 3437 91046 73168 22% 4 1512839 518611 98%
c B 108.70 273 842 0 4535 105047 84676 22% 4 1512839 518611 98%
c W 135.56 276 816 0 5863 120048 97488 22% 4 1512839 518611 98%
c } 143.80 276 793 0 6366 127024 103226 22% 4 1512839 518611 98%
c [ 143.80 276 3503 0 6366 127024 103226 49% 6 1512839 518611 98%
c B 149.38 278 3728 0 6371 136049 110319 52% 6 1512839 518611 98%
c W 157.55 280 3012 0 6376 153051 123117 44% 6 1512839 518611 98%
c 
c  seconds      reductions      redundant    irredundant
c           MB      restarts            trail        variables
c             level      conflicts          glue           remaining
c 
c I 164.18 282 3171 0 6378 171053 137690 46% 6 1512839 518611 98%
c B 171.75 287 2837 0 6389 190055 152410 41% 6 1512839 518611 98%
c W 176.75 290 2660 0 6397 210057 167790 40% 6 1512839 518611 98%
c O 181.11 293 2803 0 6406 231058 184491 43% 7 1512839 518611 98%
c B 189.77 296 2407 0 6407 253059 202177 39% 7 1512839 518611 98%
c ] 191.59 297 2420 0 6408 255025 203668 39% 7 1512839 518611 98%
c { 191.59 297 793 0 6408 255025 203668 22% 4 1512839 518611 98%
c F 231.37 301 706 0 8588 276065 220688 22% 4 1512839 518611 98%
c B 267.73 304 675 0 10727 300066 240051 22% 4 1512839 518611 98%
c W 310.90 308 640 0 12695 325068 260591 23% 4 1512839 518611 98%
c # 352.48 311 641 0 14733 351069 281532 24% 4 1512839 518611 98%
c B 403.05 315 619 0 16922 378070 303525 25% 4 1512839 518611 98%
c W 458.32 319 567 0 19143 406071 326321 26% 4 1512839 518611 98%
c F 509.76 322 489 0 21472 435072 349384 27% 4 1512839 518611 98%
c i 515.55 323 469 0 21683 440356 353360 27% 4 1512839 459015 87%
c i 515.66 323 469 0 21683 440388 353383 27% 4 1512839 458126 87%
c i 515.70 323 469 0 21683 440395 353387 27% 4 1512839 453330 86%
c i 515.78 323 469 0 21683 440423 353394 27% 4 1512839 452375 86%
c i 515.79 323 469 0 21683 440425 353395 27% 4 1512839 452190 85%
c } 515.82 323 469 0 21683 440436 353402 27% 4 1512839 358519 68%
c 
c  seconds     reductions       redundant    irredundant
c           MB      restarts            trail        variables
c             level      conflicts          glue           remaining
c 
c 0 515.82 323 469 0 21683 440436 353402 27% 4 1512839 358519 68%
c 
c --- [ result ] -------------------------------------------------------------
c 
s UNSATISFIABLE
c 
c --- [ run-time profiling ] -------------------------------------------------
c 
c process time taken by individual solving procedures
c (percentage relative to process time for solving)
c 
c       515.53  100.00% search
c       453.79   88.03% unstable
c        58.18   11.29% stable
c         3.44    0.67% walk
c         0.30    0.06% parse
c         0.11    0.02% lucky
c         0.00    0.00% simplify
c   =================================
c       515.53   99.94% solve
c 
c last line shows process time for solving
c (percentage relative to total process time)
c 
c --- [ statistics ] ---------------------------------------------------------
c 
c chronological:            154193        35.01 %  of conflicts
c conflicts:                440436       854.34    per second
c decisions:              20527052     39817.73    per second
c fixed:                    170080        32.15 %  of all variables
c learned:                  426960        96.94 %  per conflict
c learned_lits:            5600360       100.00 %  learned literals
c minimized:                     0         0.00 %  learned literals
c shrunken:                1072667        19.15 %  learned literals
c minishrunken:             746178        13.32 %  learned literals
c otfs:                      14237         3.23 %  of conflict
c propagations:         3825283955         7.42 M  per second
c rephased:                     29     15187.45    interval
c restarts:                  21683        20.31    interval
c stabilizing:                   4        38.19 %  of conflicts
c subsumed:                  76520         3.91 %  of all clauses
c strengthened:              11251         0.57 %  of all clauses
c walked:                        8     55054.50    interval
c 
c seconds are measured in process time for solving
c 
c --- [ resources ] ----------------------------------------------------------
c 
c total process time since initialization:       515.82    seconds
c total real time since initialization:          518.91    seconds
c maximum resident set size of process:          322.11    MB
c 
c --- [ shutting down ] ------------------------------------------------------
c 
c exit 20
